c colouring generated by benchmark framework
p edge 87 406
v 1 3
v 2 9
v 3 8
v 4 4
v 5 7
v 6 1
v 7 4
v 8 1
v 9 0
v 10 0
v 11 8
v 12 1
v 13 2
v 14 2
v 15 1
v 16 2
v 17 10
v 18 5
v 19 7
v 20 7
v 21 3
v 22 5
v 23 1
v 24 3
v 25 1
v 26 4
v 27 3
v 28 4
v 29 4
v 30 1
v 31 1
v 32 8
v 33 10
v 34 0
v 35 2
v 36 10
v 37 0
v 38 3
v 39 0
v 40 1
v 41 0
v 42 10
v 43 0
v 44 10
v 45 2
v 46 5
v 47 2
v 48 7
v 49 0
v 50 4
v 51 10
v 52 4
v 53 4
v 54 1
v 55 2
v 56 0
v 57 3
v 58 1
v 59 9
v 60 5
v 61 9
v 62 10
v 63 0
v 64 2
v 65 1
v 66 1
v 67 0
v 68 3
v 69 9
v 70 7
v 71 8
v 72 5
v 73 5
v 74 10
v 75 1
v 76 3
v 77 3
v 78 9
v 79 10
v 80 4
v 81 2
v 82 10
v 83 6
v 84 8
v 85 1
v 86 7
v 87 3
